
%    +-----------+
% 8  | | | | | | |
% 7  | | | | | | |
% 6  | | | | | | |
% 5  | |1|1|5| | |
% 4  | |1|1| | | |
% 3  | | | | | | |
% 2  | | |6|3|4| |
% 1  | | |2| | | |
%    +-----------+
n=6;
m=8;
h=2;
%maxT=30;
boxNumber=6;
boxSideLen = [2, 1, 1, 1, 1, 1];
boxStartX  = [2, 3, 4, 5, 4, 3];
boxStartY  = [4, 1, 2, 2, 5, 2];
